SCIP version 0.82 [precision: 8 byte] [memory: block] [mode: optimized] [LP solver: SOPLEX 1.3.0]
Copyright (c) 2002-2006 Konrad-Zuse-Zentrum fuer Informationstechnik Berlin (ZIB)

reading parameter file <scip.set>

read problem </ufs/psxjm3/instances/random_5.ctt.c.zpl>
============

****************************************************
* Zuse Institute Mathematical Programming Language *
* Release 2.04  Copyright (C)2005 by Thorsten Koch *
****************************************************

original problem has 20400 variables (20400 bin, 0 int, 0 impl, 0 cont) and 3492 constraints

solve problem
=============

LP Solver <SOPLEX 1.3.0>: dual feasibility tolerance cannot be set -- tolerance of SCIP and LP solver may differ
LP Solver <SOPLEX 1.3.0>: barrier convergence tolerance cannot be set -- tolerance of SCIP and LP solver may differ
LP Solver <SOPLEX 1.3.0>: fastmip setting not available -- SCIP parameter has no effect
LP Solver <SOPLEX 1.3.0>: scaling not available -- SCIP parameter has no effect
LP Solver <SOPLEX 1.3.0>: presolving not available -- SCIP parameter has no effect
transformed problem has 20400 variables (20400 bin, 0 int, 0 impl, 0 cont) and 3492 constraints
   3492 constraints of type <linear>

presolving:
(round 1) 2724 del vars, 46 del conss, 2724 chg bounds, 0 chg sides, 0 chg coeffs, 0 upgd conss, 0 impls, 2685 clqs
(round 2) 2724 del vars, 327 del conss, 2724 chg bounds, 0 chg sides, 0 chg coeffs, 0 upgd conss, 0 impls, 2685 clqs
(round 3) 2724 del vars, 2106 del conss, 2724 chg bounds, 1794 chg sides, 0 chg coeffs, 0 upgd conss, 0 impls, 2685 clqs
(round 4) 2724 del vars, 2106 del conss, 2724 chg bounds, 1794 chg sides, 0 chg coeffs, 1280 upgd conss, 0 impls, 2685 clqs
   (3.9s) probing: 100/17676 (0.6%) - 0 fixings, 0 aggregations, 0 implications, 0 bound changes
presolving (5 rounds):
 2724 deleted vars, 2106 deleted constraints, 2724 tightened bounds, 0 added holes, 1794 changed sides, 0 changed coefficients
 0 implications, 2685 cliques
presolved problem has 17676 variables (17676 bin, 0 int, 0 impl, 0 cont) and 1386 constraints
   1280 constraints of type <setppc>
    106 constraints of type <linear>
objective value is always integral
Presolving Time: 3.75

 time | node  | left  |LP iter| mem |mdpt |frac |vars |cons |ccons|cols |rows |cuts |confs|strbr|  dualbound   | primalbound  |  gap   
  5.3s|     1 |     0 |  1392 |  53M|   0 | 140 |  17k|1386 |1386 |  17k|1386 |   0 |   0 |   0 | 0.000000e+00 |      --      |    Inf 
  6.2s|     1 |     0 |  1617 |  53M|   0 | 200 |  17k|1386 |1386 |  17k|1390 |   4 |   0 |   0 | 0.000000e+00 |      --      |    Inf 
  6.8s|     1 |     0 |  1712 |  53M|   0 | 270 |  17k|1386 |1386 |  17k|1396 |  10 |   0 |   0 | 0.000000e+00 |      --      |    Inf 
  7.3s|     1 |     0 |  1762 |  53M|   0 | 281 |  17k|1386 |1386 |  17k|1402 |  16 |   0 |   0 | 0.000000e+00 |      --      |    Inf 
  7.8s|     1 |     0 |  1781 |  53M|   0 | 292 |  17k|1386 |1386 |  17k|1408 |  22 |   0 |   0 | 0.000000e+00 |      --      |    Inf 
  8.2s|     1 |     0 |  1786 |  53M|   0 | 297 |  17k|1386 |1386 |  17k|1412 |  26 |   0 |   0 | 0.000000e+00 |      --      |    Inf 
  8.7s|     1 |     0 |  1791 |  53M|   0 | 298 |  17k|1386 |1386 |  17k|1413 |  27 |   0 |   0 | 0.000000e+00 |      --      |    Inf 
F30.2s|     1 |     2 |  2567 |  53M|   0 |   0 |  17k|1386 |1386 |  17k|1413 |  27 |   0 |  33 | 0.000000e+00 | 0.000000e+00 |   0.00%

SCIP Status        : problem is solved [optimal solution found]
Solving Time (sec) : 30.27
Solving Nodes      : 1
Primal Bound       : +0.00000000000000e+00 (1 solutions)
Dual Bound         : +0.00000000000000e+00
Gap                : 0.00 %

primal solution:
================

objective value:                                    0
Taught#1#1#18                                       1 	(obj:0)
Taught#1#2#16                                       1 	(obj:0)
Taught#1#3#43                                       1 	(obj:0)
Taught#1#5#51                                       1 	(obj:0)
Taught#1#6#39                                       1 	(obj:0)
Taught#1#7#48                                       1 	(obj:0)
Taught#1#8#58                                       1 	(obj:0)
Taught#1#9#55                                       1 	(obj:0)
Taught#1#10#40                                      1 	(obj:0)
Taught#1#11#66                                      1 	(obj:0)
Taught#1#12#14                                      1 	(obj:0)
Taught#2#1#55                                       1 	(obj:0)
Taught#2#2#32                                       1 	(obj:0)
Taught#2#3#13                                       1 	(obj:0)
Taught#2#4#41                                       1 	(obj:0)
Taught#2#5#23                                       1 	(obj:0)
Taught#2#6#37                                       1 	(obj:0)
Taught#2#7#29                                       1 	(obj:0)
Taught#2#8#1                                        1 	(obj:0)
Taught#2#9#49                                       1 	(obj:0)
Taught#2#10#19                                      1 	(obj:0)
Taught#2#11#16                                      1 	(obj:0)
Taught#2#12#22                                      1 	(obj:0)
Taught#3#1#61                                       1 	(obj:0)
Taught#3#2#47                                       1 	(obj:0)
Taught#3#3#20                                       1 	(obj:0)
Taught#3#4#41                                       1 	(obj:0)
Taught#3#5#8                                        1 	(obj:0)
Taught#3#6#22                                       1 	(obj:0)
Taught#3#7#2                                        1 	(obj:0)
Taught#3#8#35                                       1 	(obj:0)
Taught#3#9#24                                       1 	(obj:0)
Taught#3#10#19                                      1 	(obj:0)
Taught#3#11#17                                      1 	(obj:0)
Taught#3#12#21                                      1 	(obj:0)
Taught#4#1#33                                       1 	(obj:0)
Taught#4#2#20                                       1 	(obj:0)
Taught#4#3#40                                       1 	(obj:0)
Taught#4#4#6                                        1 	(obj:0)
Taught#4#5#30                                       1 	(obj:0)
Taught#4#7#62                                       1 	(obj:0)
Taught#4#10#10                                      1 	(obj:0)
Taught#4#11#25                                      1 	(obj:0)
Taught#5#1#23                                       1 	(obj:0)
Taught#5#2#46                                       1 	(obj:0)
Taught#5#3#21                                       1 	(obj:0)
Taught#5#5#6                                        1 	(obj:0)
Taught#5#7#61                                       1 	(obj:0)
Taught#5#8#20                                       1 	(obj:0)
Taught#6#1#41                                       1 	(obj:0)
Taught#6#2#56                                       1 	(obj:0)
Taught#6#3#15                                       1 	(obj:0)
Taught#6#4#48                                       1 	(obj:0)
Taught#6#7#46                                       1 	(obj:0)
Taught#6#9#68                                       1 	(obj:0)
Taught#6#10#39                                      1 	(obj:0)
Taught#6#12#44                                      1 	(obj:0)
Taught#7#1#52                                       1 	(obj:0)
Taught#7#2#43                                       1 	(obj:0)
Taught#7#4#9                                        1 	(obj:0)
Taught#7#6#41                                       1 	(obj:0)
Taught#7#7#49                                       1 	(obj:0)
Taught#7#8#17                                       1 	(obj:0)
Taught#7#10#38                                      1 	(obj:0)
Taught#7#11#26                                      1 	(obj:0)
Taught#8#1#67                                       1 	(obj:0)
Taught#8#2#53                                       1 	(obj:0)
Taught#8#3#48                                       1 	(obj:0)
Taught#8#4#51                                       1 	(obj:0)
Taught#8#5#38                                       1 	(obj:0)
Taught#8#6#5                                        1 	(obj:0)
Taught#8#7#45                                       1 	(obj:0)
Taught#8#8#4                                        1 	(obj:0)
Taught#8#11#2                                       1 	(obj:0)
Taught#9#1#57                                       1 	(obj:0)
Taught#9#3#6                                        1 	(obj:0)
Taught#9#5#28                                       1 	(obj:0)
Taught#9#6#48                                       1 	(obj:0)
Taught#9#8#50                                       1 	(obj:0)
Taught#9#9#66                                       1 	(obj:0)
Taught#9#11#42                                      1 	(obj:0)
Taught#9#12#11                                      1 	(obj:0)
Taught#10#4#34                                      1 	(obj:0)
Taught#10#5#29                                      1 	(obj:0)
Taught#10#6#53                                      1 	(obj:0)
Taught#10#7#4                                       1 	(obj:0)
Taught#10#8#12                                      1 	(obj:0)
Taught#10#9#54                                      1 	(obj:0)
Taught#10#10#42                                     1 	(obj:0)
Taught#10#11#9                                      1 	(obj:0)
Taught#10#12#32                                     1 	(obj:0)
Taught#11#2#40                                      1 	(obj:0)
Taught#11#3#63                                      1 	(obj:0)
Taught#11#4#60                                      1 	(obj:0)
Taught#11#8#5                                       1 	(obj:0)
Taught#11#9#31                                      1 	(obj:0)
Taught#11#10#11                                     1 	(obj:0)
Taught#11#11#45                                     1 	(obj:0)
Taught#11#12#30                                     1 	(obj:0)
Taught#12#1#3                                       1 	(obj:0)
Taught#12#2#36                                      1 	(obj:0)
Taught#12#3#27                                      1 	(obj:0)
Taught#12#4#47                                      1 	(obj:0)
Taught#12#5#53                                      1 	(obj:0)
Taught#12#7#24                                      1 	(obj:0)
Taught#12#8#49                                      1 	(obj:0)
Taught#12#9#44                                      1 	(obj:0)
Taught#13#1#65                                      1 	(obj:0)
Taught#13#4#67                                      1 	(obj:0)
Taught#13#5#32                                      1 	(obj:0)
Taught#13#6#28                                      1 	(obj:0)
Taught#13#7#50                                      1 	(obj:0)
Taught#13#8#4                                       1 	(obj:0)
Taught#13#10#7                                      1 	(obj:0)
Taught#13#12#18                                     1 	(obj:0)
Taught#14#2#24                                      1 	(obj:0)
Taught#14#3#37                                      1 	(obj:0)
Taught#14#4#45                                      1 	(obj:0)
Taught#14#5#52                                      1 	(obj:0)
Taught#14#7#7                                       1 	(obj:0)
Taught#14#8#63                                      1 	(obj:0)
Taught#14#9#18                                      1 	(obj:0)
Taught#14#10#57                                     1 	(obj:0)
Taught#14#11#16                                     1 	(obj:0)
Taught#15#1#28                                      1 	(obj:0)
Taught#15#3#64                                      1 	(obj:0)
Taught#15#4#2                                       1 	(obj:0)
Taught#15#5#29                                      1 	(obj:0)
Taught#15#7#26                                      1 	(obj:0)
Taught#15#9#46                                      1 	(obj:0)
Taught#15#11#42                                     1 	(obj:0)
Taught#16#2#31                                      1 	(obj:0)
Taught#16#5#18                                      1 	(obj:0)
Taught#16#7#34                                      1 	(obj:0)
Taught#16#10#22                                     1 	(obj:0)
Taught#16#11#12                                     1 	(obj:0)
Taught#17#1#63                                      1 	(obj:0)
Taught#17#3#42                                      1 	(obj:0)
Taught#17#4#60                                      1 	(obj:0)
Taught#17#5#19                                      1 	(obj:0)
Taught#17#6#59                                      1 	(obj:0)
Taught#17#7#44                                      1 	(obj:0)
Taught#17#8#29                                      1 	(obj:0)
Taught#17#9#36                                      1 	(obj:0)
Taught#17#11#53                                     1 	(obj:0)
Taught#17#12#8                                      1 	(obj:0)
Taught#18#1#27                                      1 	(obj:0)
Taught#18#2#65                                      1 	(obj:0)
Taught#18#3#12                                      1 	(obj:0)
Taught#18#5#66                                      1 	(obj:0)
Taught#18#7#7                                       1 	(obj:0)
Taught#18#8#1                                       1 	(obj:0)
Taught#18#10#61                                     1 	(obj:0)
Taught#18#11#54                                     1 	(obj:0)
Taught#18#12#39                                     1 	(obj:0)
Taught#19#3#59                                      1 	(obj:0)
Taught#19#4#7                                       1 	(obj:0)
Taught#19#7#67                                      1 	(obj:0)
Taught#19#10#62                                     1 	(obj:0)
Taught#19#11#33                                     1 	(obj:0)
Taught#19#12#11                                     1 	(obj:0)
Taught#20#1#68                                      1 	(obj:0)
Taught#20#2#60                                      1 	(obj:0)
Taught#20#3#57                                      1 	(obj:0)
Taught#20#7#67                                      1 	(obj:0)
Taught#20#8#46                                      1 	(obj:0)
Taught#21#7#17                                      1 	(obj:0)
Taught#21#8#34                                      1 	(obj:0)
Taught#21#11#51                                     1 	(obj:0)
Taught#21#12#14                                     1 	(obj:0)
Taught#22#6#16                                      1 	(obj:0)
Taught#22#9#23                                      1 	(obj:0)
Taught#22#10#56                                     1 	(obj:0)
Taught#22#11#68                                     1 	(obj:0)
Taught#22#12#33                                     1 	(obj:0)
Taught#23#1#45                                      1 	(obj:0)
Taught#23#2#56                                      1 	(obj:0)
Taught#23#3#33                                      1 	(obj:0)
Taught#23#4#27                                      1 	(obj:0)
Taught#23#5#15                                      1 	(obj:0)
Taught#23#6#13                                      1 	(obj:0)
Taught#23#7#32                                      1 	(obj:0)
Taught#23#8#30                                      1 	(obj:0)
Taught#23#10#10                                     1 	(obj:0)
Taught#23#11#37                                     1 	(obj:0)
Taught#24#1#35                                      1 	(obj:0)
Taught#24#3#24                                      1 	(obj:0)
Taught#24#5#54                                      1 	(obj:0)
Taught#24#7#58                                      1 	(obj:0)
Taught#24#8#64                                      1 	(obj:0)
Taught#24#9#56                                      1 	(obj:0)
Taught#24#11#60                                     1 	(obj:0)
Taught#24#12#25                                     1 	(obj:0)
Taught#25#1#35                                      1 	(obj:0)
Taught#25#4#6                                       1 	(obj:0)
Taught#25#5#10                                      1 	(obj:0)
Taught#25#6#3                                       1 	(obj:0)
Taught#25#10#5                                      1 	(obj:0)
Taught#25#11#47                                     1 	(obj:0)
Taught#25#12#22                                     1 	(obj:0)

Statistics
==========

SCIP Status        : problem is solved [optimal solution found]
Solving Time       :      30.27
Original Problem   :
  Problem name     : random_5.ctt.c.zpl
  Variables        : 20400 (20400 binary, 0 integer, 0 implicit integer, 0 continuous)
  Constraints      : 3492 initial, 3492 maximal
Presolved Problem  :
  Problem name     : t_random_5.ctt.c.zpl
  Variables        : 17676 (17676 binary, 0 integer, 0 implicit integer, 0 continuous)
  Constraints      : 1386 initial, 1386 maximal
Presolvers         :       Time  FixedVars   AggrVars   ChgTypes  ChgBounds   AddHoles    DelCons   ChgSides   ChgCoefs
  trivial          :       0.00          0          0          0          0          0          0          0          0
  inttobinary      :       0.00          0          0          0          0          0          0          0          0
  dualfix          :       0.02          0          0          0          0          0          0          0          0
  implics          :       0.00          0          0          0          0          0          0          0          0
  probing          :       2.78          0          0          0          0          0          0          0          0
  setppc           :       0.05          0          0          0          0          0          0          0          0
  linear           :       0.70       2724          0          0       2724          0       2106       1794          0
  root node        :          -          0          -          -          0          -          -          -          -
Constraints        :     Number  #Separate #Propagate    #EnfoLP    #EnfoPS    Cutoffs    DomReds       Cuts      Conss   Children
  integral         :          0          0          0          1          0          0          0          0          0          2
  setppc           :       1280          6        201          0          0          0          0          0          0          0
  linear           :        106          6        201          0          0          0          0          0          0          0
Constraint Timings :  TotalTime   Separate  Propagate     EnfoLP     EnfoPS
  integral         :      18.74       0.00       0.00      18.74       0.00
  setppc           :       0.05       0.00       0.05       0.00       0.00
  linear           :       2.08       0.00       2.08       0.00       0.00
Propagators        :       Time      Calls    Cutoffs    DomReds
  rootredcost      :       0.00          0          0          0
  pseudoobj        :       0.00          1          0          0
Conflict Analysis  :       Time      Calls    Success  Conflicts   Literals    Reconvs ReconvLits   LP Iters
  propagation      :       0.00          0          0          0        0.0          0        0.0          -
  infeasible LP    :       0.00          0          0          0        0.0          0        0.0          0
  bound exceed. LP :       0.00          0          0          0        0.0          0        0.0          0
  strong branching :       0.00          0          0          0        0.0          0        0.0          0
  pseudo solution  :       0.00          0          0          0        0.0          0        0.0          -
  applied globally :          -          -          -          0        0.0          -          -          -
  applied locally  :          -          -          -          0        0.0          -          -          -
Separators         :       Time      Calls    Cutoffs    DomReds       Cuts      Conss
  cut pool         :       0.00          5          -          -          0          -    (maximal pool size: 27)
  redcost          :       0.00          6          0          0          0          0
  impliedbounds    :       0.02          6          0          0          0          0
  intobj           :       0.00          0          0          0          0          0
  gomory           :       0.08          6          0          0          0          0
  strongcg         :       0.07          6          0          0          0          0
  cmir             :       1.80          6          0          0          0          0
  clique           :       0.08          6          0          0         27          0
Pricers            :       Time      Calls       Vars
  problem variables:       0.00          0          0
Branching Rules    :       Time      Calls    Cutoffs    DomReds       Cuts      Conss   Children
  relpscost        :      18.74          1          0          0          0          0          2
  pscost           :       0.00          0          0          0          0          0          0
  inference        :       0.00          0          0          0          0          0          0
  mostinf          :       0.00          0          0          0          0          0          0
  leastinf         :       0.00          0          0          0          0          0          0
  fullstrong       :       0.00          0          0          0          0          0          0
  allfullstrong    :       0.00          0          0          0          0          0          0
Primal Heuristics  :       Time      Calls      Found
  LP solutions     :       0.00          -          0
  pseudo solutions :       0.00          -          0
  octane           :       0.00          0          0
  simplerounding   :       0.01          7          0
  rounding         :       0.11          7          0
  shifting         :       0.47          7          0
  fixandinfer      :       0.00          0          0
  feaspump         :       2.87          1          1
  coefdiving       :       0.00          0          0
  pscostdiving     :       0.00          0          0
  fracdiving       :       0.00          0          0
  intdiving        :       0.00          0          0
  objpscostdiving  :       0.00          0          0
  rootsoldiving    :       0.00          0          0
  linesearchdiving :       0.00          0          0
  guideddiving     :       0.00          0          0
  rins             :       0.00          0          0
  localbranching   :       0.00          0          0
  crossover        :       0.00          0          0
LP                 :       Time      Calls Iterations  Iter/call   Iter/sec
  primal LP        :       0.00          0          0       0.00          -
  dual LP          :       1.85          7       1791     255.86     968.11
  barrier LP       :       0.00          0          0       0.00          -
  diving/probing LP:       2.82          1        776     776.00     275.18
  strong branching :      18.74         33       9814     297.39     523.69
    (at root node) :          -         33       9814     297.39          -
  conflict analysis:       0.00          0          0       0.00          -
B&B Tree           :
  number of runs   :          1
  nodes            :          1
  nodes (total)    :          1
  nodes left       :          0
  max depth        :          0
  max depth (total):          0
  backtracks       :          0 (0.0%)
  delayed cutoffs  :          0
  repropagations   :          0 (0 domain reductions, 0 cutoffs)
  avg switch length:       2.00
  switching time   :       0.00
Solution           :
  Solutions found  :          1 (1 improvements)
  Primal Bound     : +0.00000000000000e+00   (in run 1, after 1 nodes, 30.24 seconds, depth 0, found by <feaspump>)
  Dual Bound       : +0.00000000000000e+00
  Gap              :       0.00 %
  Root Dual Bound  : +0.00000000000000e+00
cp: copying multiple files, but last argument `/home/psxjm3/' is not a directory
Try `cp --help' for more information.
